letting initialStacks = [41, 42, 50, 30, 32, 46, 18, 17, 25, 38, 34, 9, 16, 51, 4, 35, 44, 43, 20, 28, 47, 40, 49, 33, 27, 11, 5, 14, 31, 26, 23, 12, 6, 39, 37, 22, 3, 48, 8, 29, 24, 13, 10, 45, 2, 21, 1, 15, 36, 19, 7]
